NAME :  IRP
COMMENT : 
TYPE :  CVRP
DIMENSION : 	5
EDGE_WEIGHT_TYPE : 	EUC_2D
CAPACITY : 	799
NODE_COORD_SECTION
1	113	95
2	332	204
3	363	368
4	374	148
5	81	442
DEMAND_SECTION
1	0
2	94
3	117
4	153
5	174
DEPOT_SECTION
	1
	-1
EOF
